data;

set A := 552028 588852 152467 222557 164530 683045 621806 681836 972012 825101 589860 501139 521057 548747 873445 306228 469545 162771 888065 698019 743646 197802 975598 614951 939166 61800 770111 691896 863430 609396 7406 161278 471352 963915 979154 697112 619158 198522 91049 314002 539396 431902 523727 815661 362665 631083 804740 686234;
param T := 12000000;

end;
